SECTION Graph 
Nodes 24
Edges 32
E 2 11 2482300
E 11 12 1503413
E 7 11 3046393
E 8 12 2734671
E 8 13 962960
E 13 17 1862117
E 13 14 1000868
E 6 13 2734671
E 6 12 962960
E 10 14 1537189
E 10 15 1559870
E 15 16 362802
E 15 18 545640
E 16 19 545640
E 3 17 698621
E 3 22 1122384
E 3 16 1174387
E 3 14 1559870
E 17 23 1122384
E 1 18 153044
E 1 20 729788
E 18 19 362802
E 18 20 576744
E 19 21 576744
E 20 21 362802
E 20 24 496968
E 21 22 1174387
E 22 23 698621
E 9 23 999800
E 4 24 269721
E 4 21 403887
E 5 24 341333
END 

SECTION Terminals 
Terminals 10
TP 1 6
TP 2 7
TP 3 8
TP 4 9
TP 5 10
END 
